units       real
variable    T equal 400
variable    V equal vol
variable    dt equal 4.0
variable    d equal 500
dimension    3
boundary     p p p
lattice      fcc 54 orient x 1 0 0 orient y 0 1 0 orient z 0 0 1
region       box block 0 5 0 5 0 5
create_box   1 box
create_atoms 1 box
mass         1 39.948
pair_style   lj/cut 13.0
pair_coeff   * * 0.2381 3.405
timestep     ${dt}
thermo       $d
#thermalization
velocity      all create $T 213597
fix          NVT all nvt temp $T $T 10 drag 0.2
run          10000
reset_timestep 0
thermo_style custom step temp pe ke etotal press density
dump 1 all custom 1000 df.lammpstrj id type x y z vx vy vz 
run          100000
